language ESSENCE' 1.0
$ minion Nodes: 10
$ minion TotalTime: 0.00113
$ Savile Row TotalTime: 0.232
letting f_Matrix1D_Explicit_Occurrence be [[[0, 1, 1, 1;int(1..4)], 
[1, 0, 1, 1;int(1..4)];int(1..2)], 
[[0, 1, 1, 1;int(1..4)], 
[1, 0, 1, 1;int(1..4)];int(1..2)], 
[[0, 1, 1, 1;int(1..4)], 
[1, 0, 1, 1;int(1..4)];int(1..2)];int(1..3)]
